loop__main__1413:
(set-info :source |printed by MathSAT|)
(assert true)
loop__abort__1466:
(set-info :source |printed by MathSAT|)
(assert true)
loop____assert_func__1471:
(set-info :source |printed by MathSAT|)
(assert false)
